9
2147483647 51 58 68 38 54 28 12 68 
51 2147483647 87 49 28 23 10 5 57 
58 87 2147483647 8 50 43 74 86 68 
68 49 8 2147483647 39 38 43 68 52 
38 28 50 39 2147483647 2 77 78 60 
54 23 43 38 2 2147483647 74 52 17 
28 10 74 43 77 74 2147483647 43 20 
12 5 86 68 78 52 43 2147483647 82 
68 57 68 52 60 17 20 82 2147483647 
